NAME: ulysses22.tsp
TYPE: CVRP
COMMENT: Odyssey of Ulysses (Groetschel and Padberg), No of trucks: 4, Optimal value: 9179
DIMENSION: 22
EDGE_WEIGHT_TYPE: GEO
DISPLAY_DATA_TYPE: COORD_DISPLAY
CAPACITY: 6
NODE_COORD_SECTION
 1 38.24 20.42
 2 39.57 26.15
 3 40.56 25.32
 4 36.26 23.12
 5 33.48 10.54
 6 37.56 12.19
 7 38.42 13.11
 8 37.52 20.44
 9 41.23 9.10
 10 41.17 13.05
 11 36.08 -5.21
 12 38.47 15.13
 13 38.15 15.35
 14 37.51 15.17
 15 35.49 14.32
 16 39.36 19.56
 17 38.09 24.36
 18 36.09 23.00
 19 40.44 13.57
 20 40.33 14.15
 21 40.37 14.23
 22 37.57 22.56
DEMAND_SECTION
1 0
2 1
3 1
4 1
5 1
6 1
7 1
8 1
9 1
10 1
11 1
12 1
13 1
14 1
15 1
16 1
17 1
18 1
19 1
20 1
21 1
22 1
DEPOT_SECTION
 1
 -1
EOF

